p cnf 94 1640
-1 2 0
-1 3 0
-1 -4 0
-1 -5 0
-1 6 0
-1 -7 0
-1 8 0
-1 9 0
-1 10 0
-1 -11 0
-1 -12 0
-1 13 0
-1 14 0
-1 -15 0
-1 -16 0
-1 -17 0
-18 19 0
-18 20 0
-18 -21 0
-18 -22 0
-18 23 0
-18 -24 0
-18 25 0
-18 26 0
-18 27 0
-18 -28 0
-18 -29 0
-18 30 0
-18 31 0
-18 -32 0
-18 -33 0
-18 -34 0
-35 36 0
-35 37 0
-35 -38 0
-35 -39 0
-35 40 0
-35 -41 0
-35 42 0
-35 43 0
-35 44 0
-35 -45 0
-35 -46 0
-35 47 0
-35 48 0
-35 -49 0
-35 -50 0
-35 -51 0
1 18 35 0
52 53 54 55 56 57 0
58 59 60 61 62 63 64 65 66 67 0
68 69 70 71 72 73 74 75 76 77 78 79 80 81 82 0
-52 2 -83 0
-52 -2 83 0
-52 3 -85 0
-52 -3 85 0
-52 4 -84 0
-52 -4 84 0
-52 5 -86 0
-52 -5 86 0
-52 6 -83 0
-52 -6 83 0
-52 7 -85 0
-52 -7 85 0
-52 8 -84 0
-52 -8 84 0
-52 9 -86 0
-52 -9 86 0
-52 10 -83 0
-52 -10 83 0
-52 11 -85 0
-52 -11 85 0
-52 12 -84 0
-52 -12 84 0
-52 13 -86 0
-52 -13 86 0
-52 14 -83 0
-52 -14 83 0
-52 15 -85 0
-52 -15 85 0
-52 16 -84 0
-52 -16 84 0
-52 17 -86 0
-52 -17 86 0
-53 2 -83 0
-53 -2 83 0
-53 3 -85 0
-53 -3 85 0
-53 4 -83 0
-53 -4 83 0
-53 5 -85 0
-53 -5 85 0
-53 6 -84 0
-53 -6 84 0
-53 7 -86 0
-53 -7 86 0
-53 8 -84 0
-53 -8 84 0
-53 9 -86 0
-53 -9 86 0
-53 10 -83 0
-53 -10 83 0
-53 11 -85 0
-53 -11 85 0
-53 12 -83 0
-53 -12 83 0
-53 13 -85 0
-53 -13 85 0
-53 14 -84 0
-53 -14 84 0
-53 15 -86 0
-53 -15 86 0
-53 16 -84 0
-53 -16 84 0
-53 17 -86 0
-53 -17 86 0
-54 2 -83 0
-54 -2 83 0
-54 3 -83 0
-54 -3 83 0
-54 4 -85 0
-54 -4 85 0
-54 5 -85 0
-54 -5 85 0
-54 6 -84 0
-54 -6 84 0
-54 7 -84 0
-54 -7 84 0
-54 8 -86 0
-54 -8 86 0
-54 9 -86 0
-54 -9 86 0
-54 10 -83 0
-54 -10 83 0
-54 11 -83 0
-54 -11 83 0
-54 12 -85 0
-54 -12 85 0
-54 13 -85 0
-54 -13 85 0
-54 14 -84 0
-54 -14 84 0
-54 15 -84 0
-54 -15 84 0
-54 16 -86 0
-54 -16 86 0
-54 17 -86 0
-54 -17 86 0
-55 2 -83 0
-55 -2 83 0
-55 3 -85 0
-55 -3 85 0
-55 4 -83 0
-55 -4 83 0
-55 5 -85 0
-55 -5 85 0
-55 6 -83 0
-55 -6 83 0
-55 7 -85 0
-55 -7 85 0
-55 8 -83 0
-55 -8 83 0
-55 9 -85 0
-55 -9 85 0
-55 10 -84 0
-55 -10 84 0
-55 11 -86 0
-55 -11 86 0
-55 12 -84 0
-55 -12 84 0
-55 13 -86 0
-55 -13 86 0
-55 14 -84 0
-55 -14 84 0
-55 15 -86 0
-55 -15 86 0
-55 16 -84 0
-55 -16 84 0
-55 17 -86 0
-55 -17 86 0
-56 2 -83 0
-56 -2 83 0
-56 3 -83 0
-56 -3 83 0
-56 4 -85 0
-56 -4 85 0
-56 5 -85 0
-56 -5 85 0
-56 6 -83 0
-56 -6 83 0
-56 7 -83 0
-56 -7 83 0
-56 8 -85 0
-56 -8 85 0
-56 9 -85 0
-56 -9 85 0
-56 10 -84 0
-56 -10 84 0
-56 11 -84 0
-56 -11 84 0
-56 12 -86 0
-56 -12 86 0
-56 13 -86 0
-56 -13 86 0
-56 14 -84 0
-56 -14 84 0
-56 15 -84 0
-56 -15 84 0
-56 16 -86 0
-56 -16 86 0
-56 17 -86 0
-56 -17 86 0
-57 2 -83 0
-57 -2 83 0
-57 3 -83 0
-57 -3 83 0
-57 4 -83 0
-57 -4 83 0
-57 5 -83 0
-57 -5 83 0
-57 6 -85 0
-57 -6 85 0
-57 7 -85 0
-57 -7 85 0
-57 8 -85 0
-57 -8 85 0
-57 9 -85 0
-57 -9 85 0
-57 10 -84 0
-57 -10 84 0
-57 11 -84 0
-57 -11 84 0
-57 12 -84 0
-57 -12 84 0
-57 13 -84 0
-57 -13 84 0
-57 14 -86 0
-57 -14 86 0
-57 15 -86 0
-57 -15 86 0
-57 16 -86 0
-57 -16 86 0
-57 17 -86 0
-57 -17 86 0
-58 19 -87 0
-58 -19 87 0
-58 20 -89 0
-58 -20 89 0
-58 21 -88 0
-58 -21 88 0
-58 22 -90 0
-58 -22 90 0
-58 23 -87 0
-58 -23 87 0
-58 24 -89 0
-58 -24 89 0
-58 25 -88 0
-58 -25 88 0
-58 26 -90 0
-58 -26 90 0
-58 27 -87 0
-58 -27 87 0
-58 28 -89 0
-58 -28 89 0
-58 29 -88 0
-58 -29 88 0
-58 30 -90 0
-58 -30 90 0
-58 31 -87 0
-58 -31 87 0
-58 32 -89 0
-58 -32 89 0
-58 33 -88 0
-58 -33 88 0
-58 34 -90 0
-58 -34 90 0
-59 19 -87 0
-59 -19 87 0
-59 20 -89 0
-59 -20 89 0
-59 21 -87 0
-59 -21 87 0
-59 22 -89 0
-59 -22 89 0
-59 23 -88 0
-59 -23 88 0
-59 24 -90 0
-59 -24 90 0
-59 25 -88 0
-59 -25 88 0
-59 26 -90 0
-59 -26 90 0
-59 27 -87 0
-59 -27 87 0
-59 28 -89 0
-59 -28 89 0
-59 29 -87 0
-59 -29 87 0
-59 30 -89 0
-59 -30 89 0
-59 31 -88 0
-59 -31 88 0
-59 32 -90 0
-59 -32 90 0
-59 33 -88 0
-59 -33 88 0
-59 34 -90 0
-59 -34 90 0
-60 19 -87 0
-60 -19 87 0
-60 20 -87 0
-60 -20 87 0
-60 21 -89 0
-60 -21 89 0
-60 22 -89 0
-60 -22 89 0
-60 23 -88 0
-60 -23 88 0
-60 24 -88 0
-60 -24 88 0
-60 25 -90 0
-60 -25 90 0
-60 26 -90 0
-60 -26 90 0
-60 27 -87 0
-60 -27 87 0
-60 28 -87 0
-60 -28 87 0
-60 29 -89 0
-60 -29 89 0
-60 30 -89 0
-60 -30 89 0
-60 31 -88 0
-60 -31 88 0
-60 32 -88 0
-60 -32 88 0
-60 33 -90 0
-60 -33 90 0
-60 34 -90 0
-60 -34 90 0
-61 19 -87 0
-61 -19 87 0
-61 20 -89 0
-61 -20 89 0
-61 21 -87 0
-61 -21 87 0
-61 22 -89 0
-61 -22 89 0
-61 23 -87 0
-61 -23 87 0
-61 24 -89 0
-61 -24 89 0
-61 25 -87 0
-61 -25 87 0
-61 26 -89 0
-61 -26 89 0
-61 27 -88 0
-61 -27 88 0
-61 28 -90 0
-61 -28 90 0
-61 29 -88 0
-61 -29 88 0
-61 30 -90 0
-61 -30 90 0
-61 31 -88 0
-61 -31 88 0
-61 32 -90 0
-61 -32 90 0
-61 33 -88 0
-61 -33 88 0
-61 34 -90 0
-61 -34 90 0
-62 19 -87 0
-62 -19 87 0
-62 20 -87 0
-62 -20 87 0
-62 21 -89 0
-62 -21 89 0
-62 22 -89 0
-62 -22 89 0
-62 23 -87 0
-62 -23 87 0
-62 24 -87 0
-62 -24 87 0
-62 25 -89 0
-62 -25 89 0
-62 26 -89 0
-62 -26 89 0
-62 27 -88 0
-62 -27 88 0
-62 28 -88 0
-62 -28 88 0
-62 29 -90 0
-62 -29 90 0
-62 30 -90 0
-62 -30 90 0
-62 31 -88 0
-62 -31 88 0
-62 32 -88 0
-62 -32 88 0
-62 33 -90 0
-62 -33 90 0
-62 34 -90 0
-62 -34 90 0
-63 19 -87 0
-63 -19 87 0
-63 20 -87 0
-63 -20 87 0
-63 21 -87 0
-63 -21 87 0
-63 22 -87 0
-63 -22 87 0
-63 23 -89 0
-63 -23 89 0
-63 24 -89 0
-63 -24 89 0
-63 25 -89 0
-63 -25 89 0
-63 26 -89 0
-63 -26 89 0
-63 27 -88 0
-63 -27 88 0
-63 28 -88 0
-63 -28 88 0
-63 29 -88 0
-63 -29 88 0
-63 30 -88 0
-63 -30 88 0
-63 31 -90 0
-63 -31 90 0
-63 32 -90 0
-63 -32 90 0
-63 33 -90 0
-63 -33 90 0
-63 34 -90 0
-63 -34 90 0
-64 19 -87 2 0
-64 19 -88 -2 0
-64 -19 87 2 0
-64 -19 88 -2 0
-64 20 -89 3 0
-64 20 -90 -3 0
-64 -20 89 3 0
-64 -20 90 -3 0
-64 21 -87 4 0
-64 21 -88 -4 0
-64 -21 87 4 0
-64 -21 88 -4 0
-64 22 -89 5 0
-64 22 -90 -5 0
-64 -22 89 5 0
-64 -22 90 -5 0
-64 23 -87 6 0
-64 23 -88 -6 0
-64 -23 87 6 0
-64 -23 88 -6 0
-64 24 -89 7 0
-64 24 -90 -7 0
-64 -24 89 7 0
-64 -24 90 -7 0
-64 25 -87 8 0
-64 25 -88 -8 0
-64 -25 87 8 0
-64 -25 88 -8 0
-64 26 -89 9 0
-64 26 -90 -9 0
-64 -26 89 9 0
-64 -26 90 -9 0
-64 27 -87 10 0
-64 27 -88 -10 0
-64 -27 87 10 0
-64 -27 88 -10 0
-64 28 -89 11 0
-64 28 -90 -11 0
-64 -28 89 11 0
-64 -28 90 -11 0
-64 29 -87 12 0
-64 29 -88 -12 0
-64 -29 87 12 0
-64 -29 88 -12 0
-64 30 -89 13 0
-64 30 -90 -13 0
-64 -30 89 13 0
-64 -30 90 -13 0
-64 31 -87 14 0
-64 31 -88 -14 0
-64 -31 87 14 0
-64 -31 88 -14 0
-64 32 -89 15 0
-64 32 -90 -15 0
-64 -32 89 15 0
-64 -32 90 -15 0
-64 33 -87 16 0
-64 33 -88 -16 0
-64 -33 87 16 0
-64 -33 88 -16 0
-64 34 -89 17 0
-64 34 -90 -17 0
-64 -34 89 17 0
-64 -34 90 -17 0
-65 19 -87 2 0
-65 19 -88 -2 0
-65 -19 87 2 0
-65 -19 88 -2 0
-65 20 -87 3 0
-65 20 -88 -3 0
-65 -20 87 3 0
-65 -20 88 -3 0
-65 21 -89 4 0
-65 21 -90 -4 0
-65 -21 89 4 0
-65 -21 90 -4 0
-65 22 -89 5 0
-65 22 -90 -5 0
-65 -22 89 5 0
-65 -22 90 -5 0
-65 23 -87 6 0
-65 23 -88 -6 0
-65 -23 87 6 0
-65 -23 88 -6 0
-65 24 -87 7 0
-65 24 -88 -7 0
-65 -24 87 7 0
-65 -24 88 -7 0
-65 25 -89 8 0
-65 25 -90 -8 0
-65 -25 89 8 0
-65 -25 90 -8 0
-65 26 -89 9 0
-65 26 -90 -9 0
-65 -26 89 9 0
-65 -26 90 -9 0
-65 27 -87 10 0
-65 27 -88 -10 0
-65 -27 87 10 0
-65 -27 88 -10 0
-65 28 -87 11 0
-65 28 -88 -11 0
-65 -28 87 11 0
-65 -28 88 -11 0
-65 29 -89 12 0
-65 29 -90 -12 0
-65 -29 89 12 0
-65 -29 90 -12 0
-65 30 -89 13 0
-65 30 -90 -13 0
-65 -30 89 13 0
-65 -30 90 -13 0
-65 31 -87 14 0
-65 31 -88 -14 0
-65 -31 87 14 0
-65 -31 88 -14 0
-65 32 -87 15 0
-65 32 -88 -15 0
-65 -32 87 15 0
-65 -32 88 -15 0
-65 33 -89 16 0
-65 33 -90 -16 0
-65 -33 89 16 0
-65 -33 90 -16 0
-65 34 -89 17 0
-65 34 -90 -17 0
-65 -34 89 17 0
-65 -34 90 -17 0
-66 19 -87 2 0
-66 19 -88 -2 0
-66 -19 87 2 0
-66 -19 88 -2 0
-66 20 -87 3 0
-66 20 -88 -3 0
-66 -20 87 3 0
-66 -20 88 -3 0
-66 21 -87 4 0
-66 21 -88 -4 0
-66 -21 87 4 0
-66 -21 88 -4 0
-66 22 -87 5 0
-66 22 -88 -5 0
-66 -22 87 5 0
-66 -22 88 -5 0
-66 23 -89 6 0
-66 23 -90 -6 0
-66 -23 89 6 0
-66 -23 90 -6 0
-66 24 -89 7 0
-66 24 -90 -7 0
-66 -24 89 7 0
-66 -24 90 -7 0
-66 25 -89 8 0
-66 25 -90 -8 0
-66 -25 89 8 0
-66 -25 90 -8 0
-66 26 -89 9 0
-66 26 -90 -9 0
-66 -26 89 9 0
-66 -26 90 -9 0
-66 27 -87 10 0
-66 27 -88 -10 0
-66 -27 87 10 0
-66 -27 88 -10 0
-66 28 -87 11 0
-66 28 -88 -11 0
-66 -28 87 11 0
-66 -28 88 -11 0
-66 29 -87 12 0
-66 29 -88 -12 0
-66 -29 87 12 0
-66 -29 88 -12 0
-66 30 -87 13 0
-66 30 -88 -13 0
-66 -30 87 13 0
-66 -30 88 -13 0
-66 31 -89 14 0
-66 31 -90 -14 0
-66 -31 89 14 0
-66 -31 90 -14 0
-66 32 -89 15 0
-66 32 -90 -15 0
-66 -32 89 15 0
-66 -32 90 -15 0
-66 33 -89 16 0
-66 33 -90 -16 0
-66 -33 89 16 0
-66 -33 90 -16 0
-66 34 -89 17 0
-66 34 -90 -17 0
-66 -34 89 17 0
-66 -34 90 -17 0
-67 19 -87 2 0
-67 19 -88 -2 0
-67 -19 87 2 0
-67 -19 88 -2 0
-67 20 -87 3 0
-67 20 -88 -3 0
-67 -20 87 3 0
-67 -20 88 -3 0
-67 21 -87 4 0
-67 21 -88 -4 0
-67 -21 87 4 0
-67 -21 88 -4 0
-67 22 -87 5 0
-67 22 -88 -5 0
-67 -22 87 5 0
-67 -22 88 -5 0
-67 23 -87 6 0
-67 23 -88 -6 0
-67 -23 87 6 0
-67 -23 88 -6 0
-67 24 -87 7 0
-67 24 -88 -7 0
-67 -24 87 7 0
-67 -24 88 -7 0
-67 25 -87 8 0
-67 25 -88 -8 0
-67 -25 87 8 0
-67 -25 88 -8 0
-67 26 -87 9 0
-67 26 -88 -9 0
-67 -26 87 9 0
-67 -26 88 -9 0
-67 27 -89 10 0
-67 27 -90 -10 0
-67 -27 89 10 0
-67 -27 90 -10 0
-67 28 -89 11 0
-67 28 -90 -11 0
-67 -28 89 11 0
-67 -28 90 -11 0
-67 29 -89 12 0
-67 29 -90 -12 0
-67 -29 89 12 0
-67 -29 90 -12 0
-67 30 -89 13 0
-67 30 -90 -13 0
-67 -30 89 13 0
-67 -30 90 -13 0
-67 31 -89 14 0
-67 31 -90 -14 0
-67 -31 89 14 0
-67 -31 90 -14 0
-67 32 -89 15 0
-67 32 -90 -15 0
-67 -32 89 15 0
-67 -32 90 -15 0
-67 33 -89 16 0
-67 33 -90 -16 0
-67 -33 89 16 0
-67 -33 90 -16 0
-67 34 -89 17 0
-67 34 -90 -17 0
-67 -34 89 17 0
-67 -34 90 -17 0
-68 36 -91 0
-68 -36 91 0
-68 37 -93 0
-68 -37 93 0
-68 38 -92 0
-68 -38 92 0
-68 39 -94 0
-68 -39 94 0
-68 40 -91 0
-68 -40 91 0
-68 41 -93 0
-68 -41 93 0
-68 42 -92 0
-68 -42 92 0
-68 43 -94 0
-68 -43 94 0
-68 44 -91 0
-68 -44 91 0
-68 45 -93 0
-68 -45 93 0
-68 46 -92 0
-68 -46 92 0
-68 47 -94 0
-68 -47 94 0
-68 48 -91 0
-68 -48 91 0
-68 49 -93 0
-68 -49 93 0
-68 50 -92 0
-68 -50 92 0
-68 51 -94 0
-68 -51 94 0
-69 36 -91 0
-69 -36 91 0
-69 37 -93 0
-69 -37 93 0
-69 38 -91 0
-69 -38 91 0
-69 39 -93 0
-69 -39 93 0
-69 40 -92 0
-69 -40 92 0
-69 41 -94 0
-69 -41 94 0
-69 42 -92 0
-69 -42 92 0
-69 43 -94 0
-69 -43 94 0
-69 44 -91 0
-69 -44 91 0
-69 45 -93 0
-69 -45 93 0
-69 46 -91 0
-69 -46 91 0
-69 47 -93 0
-69 -47 93 0
-69 48 -92 0
-69 -48 92 0
-69 49 -94 0
-69 -49 94 0
-69 50 -92 0
-69 -50 92 0
-69 51 -94 0
-69 -51 94 0
-70 36 -91 0
-70 -36 91 0
-70 37 -91 0
-70 -37 91 0
-70 38 -93 0
-70 -38 93 0
-70 39 -93 0
-70 -39 93 0
-70 40 -92 0
-70 -40 92 0
-70 41 -92 0
-70 -41 92 0
-70 42 -94 0
-70 -42 94 0
-70 43 -94 0
-70 -43 94 0
-70 44 -91 0
-70 -44 91 0
-70 45 -91 0
-70 -45 91 0
-70 46 -93 0
-70 -46 93 0
-70 47 -93 0
-70 -47 93 0
-70 48 -92 0
-70 -48 92 0
-70 49 -92 0
-70 -49 92 0
-70 50 -94 0
-70 -50 94 0
-70 51 -94 0
-70 -51 94 0
-71 36 -91 0
-71 -36 91 0
-71 37 -93 0
-71 -37 93 0
-71 38 -91 0
-71 -38 91 0
-71 39 -93 0
-71 -39 93 0
-71 40 -91 0
-71 -40 91 0
-71 41 -93 0
-71 -41 93 0
-71 42 -91 0
-71 -42 91 0
-71 43 -93 0
-71 -43 93 0
-71 44 -92 0
-71 -44 92 0
-71 45 -94 0
-71 -45 94 0
-71 46 -92 0
-71 -46 92 0
-71 47 -94 0
-71 -47 94 0
-71 48 -92 0
-71 -48 92 0
-71 49 -94 0
-71 -49 94 0
-71 50 -92 0
-71 -50 92 0
-71 51 -94 0
-71 -51 94 0
-72 36 -91 0
-72 -36 91 0
-72 37 -91 0
-72 -37 91 0
-72 38 -93 0
-72 -38 93 0
-72 39 -93 0
-72 -39 93 0
-72 40 -91 0
-72 -40 91 0
-72 41 -91 0
-72 -41 91 0
-72 42 -93 0
-72 -42 93 0
-72 43 -93 0
-72 -43 93 0
-72 44 -92 0
-72 -44 92 0
-72 45 -92 0
-72 -45 92 0
-72 46 -94 0
-72 -46 94 0
-72 47 -94 0
-72 -47 94 0
-72 48 -92 0
-72 -48 92 0
-72 49 -92 0
-72 -49 92 0
-72 50 -94 0
-72 -50 94 0
-72 51 -94 0
-72 -51 94 0
-73 36 -91 0
-73 -36 91 0
-73 37 -91 0
-73 -37 91 0
-73 38 -91 0
-73 -38 91 0
-73 39 -91 0
-73 -39 91 0
-73 40 -93 0
-73 -40 93 0
-73 41 -93 0
-73 -41 93 0
-73 42 -93 0
-73 -42 93 0
-73 43 -93 0
-73 -43 93 0
-73 44 -92 0
-73 -44 92 0
-73 45 -92 0
-73 -45 92 0
-73 46 -92 0
-73 -46 92 0
-73 47 -92 0
-73 -47 92 0
-73 48 -94 0
-73 -48 94 0
-73 49 -94 0
-73 -49 94 0
-73 50 -94 0
-73 -50 94 0
-73 51 -94 0
-73 -51 94 0
-74 36 -91 2 0
-74 36 -92 -2 0
-74 -36 91 2 0
-74 -36 92 -2 0
-74 37 -93 3 0
-74 37 -94 -3 0
-74 -37 93 3 0
-74 -37 94 -3 0
-74 38 -91 4 0
-74 38 -92 -4 0
-74 -38 91 4 0
-74 -38 92 -4 0
-74 39 -93 5 0
-74 39 -94 -5 0
-74 -39 93 5 0
-74 -39 94 -5 0
-74 40 -91 6 0
-74 40 -92 -6 0
-74 -40 91 6 0
-74 -40 92 -6 0
-74 41 -93 7 0
-74 41 -94 -7 0
-74 -41 93 7 0
-74 -41 94 -7 0
-74 42 -91 8 0
-74 42 -92 -8 0
-74 -42 91 8 0
-74 -42 92 -8 0
-74 43 -93 9 0
-74 43 -94 -9 0
-74 -43 93 9 0
-74 -43 94 -9 0
-74 44 -91 10 0
-74 44 -92 -10 0
-74 -44 91 10 0
-74 -44 92 -10 0
-74 45 -93 11 0
-74 45 -94 -11 0
-74 -45 93 11 0
-74 -45 94 -11 0
-74 46 -91 12 0
-74 46 -92 -12 0
-74 -46 91 12 0
-74 -46 92 -12 0
-74 47 -93 13 0
-74 47 -94 -13 0
-74 -47 93 13 0
-74 -47 94 -13 0
-74 48 -91 14 0
-74 48 -92 -14 0
-74 -48 91 14 0
-74 -48 92 -14 0
-74 49 -93 15 0
-74 49 -94 -15 0
-74 -49 93 15 0
-74 -49 94 -15 0
-74 50 -91 16 0
-74 50 -92 -16 0
-74 -50 91 16 0
-74 -50 92 -16 0
-74 51 -93 17 0
-74 51 -94 -17 0
-74 -51 93 17 0
-74 -51 94 -17 0
-75 36 -91 2 0
-75 36 -92 -2 0
-75 -36 91 2 0
-75 -36 92 -2 0
-75 37 -91 3 0
-75 37 -92 -3 0
-75 -37 91 3 0
-75 -37 92 -3 0
-75 38 -93 4 0
-75 38 -94 -4 0
-75 -38 93 4 0
-75 -38 94 -4 0
-75 39 -93 5 0
-75 39 -94 -5 0
-75 -39 93 5 0
-75 -39 94 -5 0
-75 40 -91 6 0
-75 40 -92 -6 0
-75 -40 91 6 0
-75 -40 92 -6 0
-75 41 -91 7 0
-75 41 -92 -7 0
-75 -41 91 7 0
-75 -41 92 -7 0
-75 42 -93 8 0
-75 42 -94 -8 0
-75 -42 93 8 0
-75 -42 94 -8 0
-75 43 -93 9 0
-75 43 -94 -9 0
-75 -43 93 9 0
-75 -43 94 -9 0
-75 44 -91 10 0
-75 44 -92 -10 0
-75 -44 91 10 0
-75 -44 92 -10 0
-75 45 -91 11 0
-75 45 -92 -11 0
-75 -45 91 11 0
-75 -45 92 -11 0
-75 46 -93 12 0
-75 46 -94 -12 0
-75 -46 93 12 0
-75 -46 94 -12 0
-75 47 -93 13 0
-75 47 -94 -13 0
-75 -47 93 13 0
-75 -47 94 -13 0
-75 48 -91 14 0
-75 48 -92 -14 0
-75 -48 91 14 0
-75 -48 92 -14 0
-75 49 -91 15 0
-75 49 -92 -15 0
-75 -49 91 15 0
-75 -49 92 -15 0
-75 50 -93 16 0
-75 50 -94 -16 0
-75 -50 93 16 0
-75 -50 94 -16 0
-75 51 -93 17 0
-75 51 -94 -17 0
-75 -51 93 17 0
-75 -51 94 -17 0
-76 36 -91 2 0
-76 36 -92 -2 0
-76 -36 91 2 0
-76 -36 92 -2 0
-76 37 -91 3 0
-76 37 -92 -3 0
-76 -37 91 3 0
-76 -37 92 -3 0
-76 38 -91 4 0
-76 38 -92 -4 0
-76 -38 91 4 0
-76 -38 92 -4 0
-76 39 -91 5 0
-76 39 -92 -5 0
-76 -39 91 5 0
-76 -39 92 -5 0
-76 40 -93 6 0
-76 40 -94 -6 0
-76 -40 93 6 0
-76 -40 94 -6 0
-76 41 -93 7 0
-76 41 -94 -7 0
-76 -41 93 7 0
-76 -41 94 -7 0
-76 42 -93 8 0
-76 42 -94 -8 0
-76 -42 93 8 0
-76 -42 94 -8 0
-76 43 -93 9 0
-76 43 -94 -9 0
-76 -43 93 9 0
-76 -43 94 -9 0
-76 44 -91 10 0
-76 44 -92 -10 0
-76 -44 91 10 0
-76 -44 92 -10 0
-76 45 -91 11 0
-76 45 -92 -11 0
-76 -45 91 11 0
-76 -45 92 -11 0
-76 46 -91 12 0
-76 46 -92 -12 0
-76 -46 91 12 0
-76 -46 92 -12 0
-76 47 -91 13 0
-76 47 -92 -13 0
-76 -47 91 13 0
-76 -47 92 -13 0
-76 48 -93 14 0
-76 48 -94 -14 0
-76 -48 93 14 0
-76 -48 94 -14 0
-76 49 -93 15 0
-76 49 -94 -15 0
-76 -49 93 15 0
-76 -49 94 -15 0
-76 50 -93 16 0
-76 50 -94 -16 0
-76 -50 93 16 0
-76 -50 94 -16 0
-76 51 -93 17 0
-76 51 -94 -17 0
-76 -51 93 17 0
-76 -51 94 -17 0
-77 36 -91 2 0
-77 36 -92 -2 0
-77 -36 91 2 0
-77 -36 92 -2 0
-77 37 -91 3 0
-77 37 -92 -3 0
-77 -37 91 3 0
-77 -37 92 -3 0
-77 38 -91 4 0
-77 38 -92 -4 0
-77 -38 91 4 0
-77 -38 92 -4 0
-77 39 -91 5 0
-77 39 -92 -5 0
-77 -39 91 5 0
-77 -39 92 -5 0
-77 40 -91 6 0
-77 40 -92 -6 0
-77 -40 91 6 0
-77 -40 92 -6 0
-77 41 -91 7 0
-77 41 -92 -7 0
-77 -41 91 7 0
-77 -41 92 -7 0
-77 42 -91 8 0
-77 42 -92 -8 0
-77 -42 91 8 0
-77 -42 92 -8 0
-77 43 -91 9 0
-77 43 -92 -9 0
-77 -43 91 9 0
-77 -43 92 -9 0
-77 44 -93 10 0
-77 44 -94 -10 0
-77 -44 93 10 0
-77 -44 94 -10 0
-77 45 -93 11 0
-77 45 -94 -11 0
-77 -45 93 11 0
-77 -45 94 -11 0
-77 46 -93 12 0
-77 46 -94 -12 0
-77 -46 93 12 0
-77 -46 94 -12 0
-77 47 -93 13 0
-77 47 -94 -13 0
-77 -47 93 13 0
-77 -47 94 -13 0
-77 48 -93 14 0
-77 48 -94 -14 0
-77 -48 93 14 0
-77 -48 94 -14 0
-77 49 -93 15 0
-77 49 -94 -15 0
-77 -49 93 15 0
-77 -49 94 -15 0
-77 50 -93 16 0
-77 50 -94 -16 0
-77 -50 93 16 0
-77 -50 94 -16 0
-77 51 -93 17 0
-77 51 -94 -17 0
-77 -51 93 17 0
-77 -51 94 -17 0
-78 36 -91 19 0
-78 36 -92 -19 0
-78 -36 91 19 0
-78 -36 92 -19 0
-78 37 -93 20 0
-78 37 -94 -20 0
-78 -37 93 20 0
-78 -37 94 -20 0
-78 38 -91 21 0
-78 38 -92 -21 0
-78 -38 91 21 0
-78 -38 92 -21 0
-78 39 -93 22 0
-78 39 -94 -22 0
-78 -39 93 22 0
-78 -39 94 -22 0
-78 40 -91 23 0
-78 40 -92 -23 0
-78 -40 91 23 0
-78 -40 92 -23 0
-78 41 -93 24 0
-78 41 -94 -24 0
-78 -41 93 24 0
-78 -41 94 -24 0
-78 42 -91 25 0
-78 42 -92 -25 0
-78 -42 91 25 0
-78 -42 92 -25 0
-78 43 -93 26 0
-78 43 -94 -26 0
-78 -43 93 26 0
-78 -43 94 -26 0
-78 44 -91 27 0
-78 44 -92 -27 0
-78 -44 91 27 0
-78 -44 92 -27 0
-78 45 -93 28 0
-78 45 -94 -28 0
-78 -45 93 28 0
-78 -45 94 -28 0
-78 46 -91 29 0
-78 46 -92 -29 0
-78 -46 91 29 0
-78 -46 92 -29 0
-78 47 -93 30 0
-78 47 -94 -30 0
-78 -47 93 30 0
-78 -47 94 -30 0
-78 48 -91 31 0
-78 48 -92 -31 0
-78 -48 91 31 0
-78 -48 92 -31 0
-78 49 -93 32 0
-78 49 -94 -32 0
-78 -49 93 32 0
-78 -49 94 -32 0
-78 50 -91 33 0
-78 50 -92 -33 0
-78 -50 91 33 0
-78 -50 92 -33 0
-78 51 -93 34 0
-78 51 -94 -34 0
-78 -51 93 34 0
-78 -51 94 -34 0
-79 36 -91 19 0
-79 36 -92 -19 0
-79 -36 91 19 0
-79 -36 92 -19 0
-79 37 -91 20 0
-79 37 -92 -20 0
-79 -37 91 20 0
-79 -37 92 -20 0
-79 38 -93 21 0
-79 38 -94 -21 0
-79 -38 93 21 0
-79 -38 94 -21 0
-79 39 -93 22 0
-79 39 -94 -22 0
-79 -39 93 22 0
-79 -39 94 -22 0
-79 40 -91 23 0
-79 40 -92 -23 0
-79 -40 91 23 0
-79 -40 92 -23 0
-79 41 -91 24 0
-79 41 -92 -24 0
-79 -41 91 24 0
-79 -41 92 -24 0
-79 42 -93 25 0
-79 42 -94 -25 0
-79 -42 93 25 0
-79 -42 94 -25 0
-79 43 -93 26 0
-79 43 -94 -26 0
-79 -43 93 26 0
-79 -43 94 -26 0
-79 44 -91 27 0
-79 44 -92 -27 0
-79 -44 91 27 0
-79 -44 92 -27 0
-79 45 -91 28 0
-79 45 -92 -28 0
-79 -45 91 28 0
-79 -45 92 -28 0
-79 46 -93 29 0
-79 46 -94 -29 0
-79 -46 93 29 0
-79 -46 94 -29 0
-79 47 -93 30 0
-79 47 -94 -30 0
-79 -47 93 30 0
-79 -47 94 -30 0
-79 48 -91 31 0
-79 48 -92 -31 0
-79 -48 91 31 0
-79 -48 92 -31 0
-79 49 -91 32 0
-79 49 -92 -32 0
-79 -49 91 32 0
-79 -49 92 -32 0
-79 50 -93 33 0
-79 50 -94 -33 0
-79 -50 93 33 0
-79 -50 94 -33 0
-79 51 -93 34 0
-79 51 -94 -34 0
-79 -51 93 34 0
-79 -51 94 -34 0
-80 36 -91 19 0
-80 36 -92 -19 0
-80 -36 91 19 0
-80 -36 92 -19 0
-80 37 -91 20 0
-80 37 -92 -20 0
-80 -37 91 20 0
-80 -37 92 -20 0
-80 38 -91 21 0
-80 38 -92 -21 0
-80 -38 91 21 0
-80 -38 92 -21 0
-80 39 -91 22 0
-80 39 -92 -22 0
-80 -39 91 22 0
-80 -39 92 -22 0
-80 40 -93 23 0
-80 40 -94 -23 0
-80 -40 93 23 0
-80 -40 94 -23 0
-80 41 -93 24 0
-80 41 -94 -24 0
-80 -41 93 24 0
-80 -41 94 -24 0
-80 42 -93 25 0
-80 42 -94 -25 0
-80 -42 93 25 0
-80 -42 94 -25 0
-80 43 -93 26 0
-80 43 -94 -26 0
-80 -43 93 26 0
-80 -43 94 -26 0
-80 44 -91 27 0
-80 44 -92 -27 0
-80 -44 91 27 0
-80 -44 92 -27 0
-80 45 -91 28 0
-80 45 -92 -28 0
-80 -45 91 28 0
-80 -45 92 -28 0
-80 46 -91 29 0
-80 46 -92 -29 0
-80 -46 91 29 0
-80 -46 92 -29 0
-80 47 -91 30 0
-80 47 -92 -30 0
-80 -47 91 30 0
-80 -47 92 -30 0
-80 48 -93 31 0
-80 48 -94 -31 0
-80 -48 93 31 0
-80 -48 94 -31 0
-80 49 -93 32 0
-80 49 -94 -32 0
-80 -49 93 32 0
-80 -49 94 -32 0
-80 50 -93 33 0
-80 50 -94 -33 0
-80 -50 93 33 0
-80 -50 94 -33 0
-80 51 -93 34 0
-80 51 -94 -34 0
-80 -51 93 34 0
-80 -51 94 -34 0
-81 36 -91 19 0
-81 36 -92 -19 0
-81 -36 91 19 0
-81 -36 92 -19 0
-81 37 -91 20 0
-81 37 -92 -20 0
-81 -37 91 20 0
-81 -37 92 -20 0
-81 38 -91 21 0
-81 38 -92 -21 0
-81 -38 91 21 0
-81 -38 92 -21 0
-81 39 -91 22 0
-81 39 -92 -22 0
-81 -39 91 22 0
-81 -39 92 -22 0
-81 40 -91 23 0
-81 40 -92 -23 0
-81 -40 91 23 0
-81 -40 92 -23 0
-81 41 -91 24 0
-81 41 -92 -24 0
-81 -41 91 24 0
-81 -41 92 -24 0
-81 42 -91 25 0
-81 42 -92 -25 0
-81 -42 91 25 0
-81 -42 92 -25 0
-81 43 -91 26 0
-81 43 -92 -26 0
-81 -43 91 26 0
-81 -43 92 -26 0
-81 44 -93 27 0
-81 44 -94 -27 0
-81 -44 93 27 0
-81 -44 94 -27 0
-81 45 -93 28 0
-81 45 -94 -28 0
-81 -45 93 28 0
-81 -45 94 -28 0
-81 46 -93 29 0
-81 46 -94 -29 0
-81 -46 93 29 0
-81 -46 94 -29 0
-81 47 -93 30 0
-81 47 -94 -30 0
-81 -47 93 30 0
-81 -47 94 -30 0
-81 48 -93 31 0
-81 48 -94 -31 0
-81 -48 93 31 0
-81 -48 94 -31 0
-81 49 -93 32 0
-81 49 -94 -32 0
-81 -49 93 32 0
-81 -49 94 -32 0
-81 50 -93 33 0
-81 50 -94 -33 0
-81 -50 93 33 0
-81 -50 94 -33 0
-81 51 -93 34 0
-81 51 -94 -34 0
-81 -51 93 34 0
-81 -51 94 -34 0
-82 36 -91 2 19 0
-82 36 -92 2 -19 0
-82 36 -93 -2 19 0
-82 36 -94 -2 -19 0
-82 -36 91 2 19 0
-82 -36 92 2 -19 0
-82 -36 93 -2 19 0
-82 -36 94 -2 -19 0
-82 37 -91 3 20 0
-82 37 -92 3 -20 0
-82 37 -93 -3 20 0
-82 37 -94 -3 -20 0
-82 -37 91 3 20 0
-82 -37 92 3 -20 0
-82 -37 93 -3 20 0
-82 -37 94 -3 -20 0
-82 38 -91 4 21 0
-82 38 -92 4 -21 0
-82 38 -93 -4 21 0
-82 38 -94 -4 -21 0
-82 -38 91 4 21 0
-82 -38 92 4 -21 0
-82 -38 93 -4 21 0
-82 -38 94 -4 -21 0
-82 39 -91 5 22 0
-82 39 -92 5 -22 0
-82 39 -93 -5 22 0
-82 39 -94 -5 -22 0
-82 -39 91 5 22 0
-82 -39 92 5 -22 0
-82 -39 93 -5 22 0
-82 -39 94 -5 -22 0
-82 40 -91 6 23 0
-82 40 -92 6 -23 0
-82 40 -93 -6 23 0
-82 40 -94 -6 -23 0
-82 -40 91 6 23 0
-82 -40 92 6 -23 0
-82 -40 93 -6 23 0
-82 -40 94 -6 -23 0
-82 41 -91 7 24 0
-82 41 -92 7 -24 0
-82 41 -93 -7 24 0
-82 41 -94 -7 -24 0
-82 -41 91 7 24 0
-82 -41 92 7 -24 0
-82 -41 93 -7 24 0
-82 -41 94 -7 -24 0
-82 42 -91 8 25 0
-82 42 -92 8 -25 0
-82 42 -93 -8 25 0
-82 42 -94 -8 -25 0
-82 -42 91 8 25 0
-82 -42 92 8 -25 0
-82 -42 93 -8 25 0
-82 -42 94 -8 -25 0
-82 43 -91 9 26 0
-82 43 -92 9 -26 0
-82 43 -93 -9 26 0
-82 43 -94 -9 -26 0
-82 -43 91 9 26 0
-82 -43 92 9 -26 0
-82 -43 93 -9 26 0
-82 -43 94 -9 -26 0
-82 44 -91 10 27 0
-82 44 -92 10 -27 0
-82 44 -93 -10 27 0
-82 44 -94 -10 -27 0
-82 -44 91 10 27 0
-82 -44 92 10 -27 0
-82 -44 93 -10 27 0
-82 -44 94 -10 -27 0
-82 45 -91 11 28 0
-82 45 -92 11 -28 0
-82 45 -93 -11 28 0
-82 45 -94 -11 -28 0
-82 -45 91 11 28 0
-82 -45 92 11 -28 0
-82 -45 93 -11 28 0
-82 -45 94 -11 -28 0
-82 46 -91 12 29 0
-82 46 -92 12 -29 0
-82 46 -93 -12 29 0
-82 46 -94 -12 -29 0
-82 -46 91 12 29 0
-82 -46 92 12 -29 0
-82 -46 93 -12 29 0
-82 -46 94 -12 -29 0
-82 47 -91 13 30 0
-82 47 -92 13 -30 0
-82 47 -93 -13 30 0
-82 47 -94 -13 -30 0
-82 -47 91 13 30 0
-82 -47 92 13 -30 0
-82 -47 93 -13 30 0
-82 -47 94 -13 -30 0
-82 48 -91 14 31 0
-82 48 -92 14 -31 0
-82 48 -93 -14 31 0
-82 48 -94 -14 -31 0
-82 -48 91 14 31 0
-82 -48 92 14 -31 0
-82 -48 93 -14 31 0
-82 -48 94 -14 -31 0
-82 49 -91 15 32 0
-82 49 -92 15 -32 0
-82 49 -93 -15 32 0
-82 49 -94 -15 -32 0
-82 -49 91 15 32 0
-82 -49 92 15 -32 0
-82 -49 93 -15 32 0
-82 -49 94 -15 -32 0
-82 50 -91 16 33 0
-82 50 -92 16 -33 0
-82 50 -93 -16 33 0
-82 50 -94 -16 -33 0
-82 -50 91 16 33 0
-82 -50 92 16 -33 0
-82 -50 93 -16 33 0
-82 -50 94 -16 -33 0
-82 51 -91 17 34 0
-82 51 -92 17 -34 0
-82 51 -93 -17 34 0
-82 51 -94 -17 -34 0
-82 -51 91 17 34 0
-82 -51 92 17 -34 0
-82 -51 93 -17 34 0
-82 -51 94 -17 -34 0
84 85 86 0
84 -85 -86 0
-84 85 -86 0
88 89 90 0
88 -89 -90 0
-88 89 -90 0
92 93 94 0
92 -93 -94 0
-92 93 -94 0
1 64 65 66 67 74 75 76 77 82 0
18 78 79 80 81 82 0
35 0
-52 -64 0
-52 -65 0
-52 -74 0
-52 -75 0
-53 -64 0
-53 -66 0
-53 -74 0
-53 -76 0
-54 -65 0
-54 -66 0
-54 -75 0
-54 -76 0
-55 -64 0
-55 -67 0
-55 -74 0
-55 -77 0
-56 -65 0
-56 -67 0
-56 -75 0
-56 -77 0
-57 -66 0
-57 -67 0
-57 -76 0
-57 -77 0
-58 -78 0
-58 -79 0
-59 -78 0
-59 -80 0
-60 -79 0
-60 -80 0
-61 -78 0
-61 -81 0
-62 -79 0
-62 -81 0
-63 -80 0
-63 -81 0
-64 -78 0
-64 -82 0
-65 -79 0
-65 -82 0
-66 -80 0
-66 -82 0
-67 -81 0
-67 -82 0
-53 -58 0
-54 -58 0
-54 -59 0
-55 -58 0
-55 -59 0
-55 -60 0
-56 -58 0
-56 -59 0
-56 -60 0
-56 -61 0
-57 -58 0
-57 -59 0
-57 -60 0
-57 -61 0
-57 -62 0
-59 -68 0
-60 -68 0
-60 -69 0
-61 -68 0
-61 -69 0
-61 -70 0
-62 -68 0
-62 -69 0
-62 -70 0
-62 -71 0
-63 -68 0
-63 -69 0
-63 -70 0
-63 -71 0
-63 -72 0
-64 -68 0
-64 -69 0
-64 -70 0
-64 -71 0
-64 -72 0
-64 -73 0
-65 -68 0
-65 -69 0
-65 -70 0
-65 -71 0
-65 -72 0
-65 -73 0
-65 -74 0
-66 -68 0
-66 -69 0
-66 -70 0
-66 -71 0
-66 -72 0
-66 -73 0
-66 -74 0
-66 -75 0
-67 -68 0
-67 -69 0
-67 -70 0
-67 -71 0
-67 -72 0
-67 -73 0
-67 -74 0
-67 -75 0
-67 -76 0
